solution/FCND.lp
\ENCODING=ISO-8859-1
\Problem name: ilog.cplex

Minimize
 obj: 100 y(2,3) + 50 y(3,4) + 100 y(3,5) + 100 y(4,2) + 100 y(5,7)
      + 100 y(6,4) + 50 y(6,5) + 100 y(7,6) + x1(2,3) + x1(3,4) + x1(3,5)
      + x1(4,2) + x1(5,7) + x1(6,4) + x1(6,5) + x1(7,6) + x2(2,3) + x2(3,4)
      + x2(3,5) + x2(4,2) + x2(5,7) + x2(6,4) + x2(6,5) + x2(7,6) + x3(2,3)
      + x3(3,4) + x3(3,5) + x3(4,2) + x3(5,7) + x3(6,4) + x3(6,5) + x3(7,6)
      + x4(2,3) + x4(3,4) + x4(3,5) + x4(4,2) + x4(5,7) + x4(6,4) + x4(6,5)
      + x4(7,6) + x5(2,3) + x5(3,4) + x5(3,5) + x5(4,2) + x5(5,7) + x5(6,4)
      + x5(6,5) + x5(7,6) + x6(2,3) + x6(3,4) + x6(3,5) + x6(4,2) + x6(5,7)
      + x6(6,4) + x6(6,5) + x6(7,6) + x7(2,3) + x7(3,4) + x7(3,5) + x7(4,2)
      + x7(5,7) + x7(6,4) + x7(6,5) + x7(7,6) + x8(2,3) + x8(3,4) + x8(3,5)
      + x8(4,2) + x8(5,7) + x8(6,4) + x8(6,5) + x8(7,6) + x9(2,3) + x9(3,4)
      + x9(3,5) + x9(4,2) + x9(5,7) + x9(6,4) + x9(6,5) + x9(7,6) + x10(2,3)
      + x10(3,4) + x10(3,5) + x10(4,2) + x10(5,7) + x10(6,4) + x10(6,5)
      + x10(7,6)
Subject To
 c1:  x1(2,3) - x1(4,2)  = 10
 c3:  x2(2,3) - x2(4,2)  = 10
 c5:  x3(2,3) - x3(4,2)  = -10
 c7:  x4(2,3) - x4(4,2)  = 0
 c9:  x5(2,3) - x5(4,2)  = 0
 c11: x6(2,3) - x6(4,2)  = -10
 c13: x7(2,3) - x7(4,2)  = 0
 c15: x8(2,3) - x8(4,2)  = -10
 c17: x9(2,3) - x9(4,2)  = 0
 c19: x10(2,3) - x10(4,2)  = 0
 c21: - x1(2,3) + x1(3,4) + x1(3,5)  = 0
 c23: - x2(2,3) + x2(3,4) + x2(3,5)  = 0
 c25: - x3(2,3) + x3(3,4) + x3(3,5)  = 10
 c26: - x4(2,3) + x4(3,4) + x4(3,5)  = 10
 c27: - x5(2,3) + x5(3,4) + x5(3,5)  = 0
 c28: - x6(2,3) + x6(3,4) + x6(3,5)  = 0
 c29: - x7(2,3) + x7(3,4) + x7(3,5)  = 0
 c30: - x8(2,3) + x8(3,4) + x8(3,5)  = 0
 c31: - x9(2,3) + x9(3,4) + x9(3,5)  = 0
 c32: - x10(2,3) + x10(3,4) + x10(3,5)  = -10
 c33: - x1(3,4) + x1(4,2) - x1(6,4)  = -10
 c34: - x2(3,4) + x2(4,2) - x2(6,4)  = 0
 c35: - x3(3,4) + x3(4,2) - x3(6,4)  = 0
 c36: - x4(3,4) + x4(4,2) - x4(6,4)  = 0
 c37: - x5(3,4) + x5(4,2) - x5(6,4)  = 10
 c38: - x6(3,4) + x6(4,2) - x6(6,4)  = 0
 c39: - x7(3,4) + x7(4,2) - x7(6,4)  = 0
 c40: - x8(3,4) + x8(4,2) - x8(6,4)  = 0
 c41: - x9(3,4) + x9(4,2) - x9(6,4)  = 0
 c42: - x10(3,4) + x10(4,2) - x10(6,4)  = 0
 c43: - x1(3,5) + x1(5,7) - x1(6,5)  = 0
 c44: - x2(3,5) + x2(5,7) - x2(6,5)  = -10
 c45: - x3(3,5) + x3(5,7) - x3(6,5)  = 0
 c46: - x4(3,5) + x4(5,7) - x4(6,5)  = 0
 c47: - x5(3,5) + x5(5,7) - x5(6,5)  = 0
 c48: - x6(3,5) + x6(5,7) - x6(6,5)  = 10
 c49: - x7(3,5) + x7(5,7) - x7(6,5)  = 10
 c50: - x8(3,5) + x8(5,7) - x8(6,5)  = 0
 c51: - x9(3,5) + x9(5,7) - x9(6,5)  = 0
 c52: - x10(3,5) + x10(5,7) - x10(6,5)  = 0
 c53: x1(6,4) + x1(6,5) - x1(7,6)  = 0
 c54: x2(6,4) + x2(6,5) - x2(7,6)  = 0
 c55: x3(6,4) + x3(6,5) - x3(7,6)  = 0
 c56: x4(6,4) + x4(6,5) - x4(7,6)  = -10
 c57: x5(6,4) + x5(6,5) - x5(7,6)  = 0
 c58: x6(6,4) + x6(6,5) - x6(7,6)  = 0
 c59: x7(6,4) + x7(6,5) - x7(7,6)  = -10
 c60: x8(6,4) + x8(6,5) - x8(7,6)  = 10
 c61: x9(6,4) + x9(6,5) - x9(7,6)  = 10
 c62: x10(6,4) + x10(6,5) - x10(7,6)  = 0
 c63: - x1(5,7) + x1(7,6)  = 0
 c64: - x2(5,7) + x2(7,6)  = 0
 c65: - x3(5,7) + x3(7,6)  = 0
 c66: - x4(5,7) + x4(7,6)  = 0
 c67: - x5(5,7) + x5(7,6)  = -10
 c68: - x6(5,7) + x6(7,6)  = 0
 c69: - x7(5,7) + x7(7,6)  = 0
 c70: - x8(5,7) + x8(7,6)  = 0
 c71: - x9(5,7) + x9(7,6)  = -10
 c72: - x10(5,7) + x10(7,6)  = 10
 c73: - 100 y(2,3) + x1(2,3) + x2(2,3) + x3(2,3) + x4(2,3) + x5(2,3) + x6(2,3)
      + x7(2,3) + x8(2,3) + x9(2,3) + x10(2,3) <= 0
 c74: - 60 y(3,4) + x1(3,4) + x2(3,4) + x3(3,4) + x4(3,4) + x5(3,4) + x6(3,4)
      + x7(3,4) + x8(3,4) + x9(3,4) + x10(3,4) <= 0
 c75: - 100 y(3,5) + x1(3,5) + x2(3,5) + x3(3,5) + x4(3,5) + x5(3,5) + x6(3,5)
      + x7(3,5) + x8(3,5) + x9(3,5) + x10(3,5) <= 0
 c76: - 100 y(4,2) + x1(4,2) + x2(4,2) + x3(4,2) + x4(4,2) + x5(4,2) + x6(4,2)
      + x7(4,2) + x8(4,2) + x9(4,2) + x10(4,2) <= 0
 c77: - 100 y(5,7) + x1(5,7) + x2(5,7) + x3(5,7) + x4(5,7) + x5(5,7) + x6(5,7)
      + x7(5,7) + x8(5,7) + x9(5,7) + x10(5,7) <= 0
 c78: - 100 y(6,4) + x1(6,4) + x2(6,4) + x3(6,4) + x4(6,4) + x5(6,4) + x6(6,4)
      + x7(6,4) + x8(6,4) + x9(6,4) + x10(6,4) <= 0
 c79: - 60 y(6,5) + x1(6,5) + x2(6,5) + x3(6,5) + x4(6,5) + x5(6,5) + x6(6,5)
      + x7(6,5) + x8(6,5) + x9(6,5) + x10(6,5) <= 0
 c80: - 100 y(7,6) + x1(7,6) + x2(7,6) + x3(7,6) + x4(7,6) + x5(7,6) + x6(7,6)
      + x7(7,6) + x8(7,6) + x9(7,6) + x10(7,6) <= 0
Bounds
 0 <= y(2,3) <= 1
 0 <= y(3,4) <= 1
 0 <= y(3,5) <= 1
 0 <= y(4,2) <= 1
 0 <= y(5,7) <= 1
 0 <= y(6,4) <= 1
 0 <= y(6,5) <= 1
 0 <= y(7,6) <= 1
Binaries
 y(2,3)  y(3,4)  y(3,5)  y(4,2)  y(5,7)  y(6,4)  y(6,5)  y(7,6) 
End
