solution/FCND.out
Objetive:               950.00
Status:                Optimal
              1              2          50.00
              2              4          40.00
              3              1          60.00
              4              6          50.00
              5              3          40.00
              6              5          40.00
